Maximize
 obj: -1e3 VAR1 + 100 VAR2 + 100 VAR102 + 100 VAR3 + 100 VAR103 + 100 VAR4 + 100 VAR104 + 100 VAR5 + 100 VAR105 + 100 VAR6 + 100 VAR106 + 100 VAR7 + 100 VAR107 + 100 VAR8 + 100 VAR108 + 100 VAR9 + 100 VAR109 + 100 VAR10 + 100 VAR110 + 100 VAR11 + 100 VAR111 + 100 VAR12 + 100 VAR112 + 100 VAR13 + 100 VAR113 + 100 VAR14 + 100 VAR114 + 100 VAR15 + 100 VAR115 + 100 VAR16 + 100 VAR116 + 100 VAR17 + 100 VAR117 + 100 VAR18 + 100 VAR118 + 100 VAR19 + 100 VAR119 + 100 VAR20 + 100 VAR120 + 100 VAR21 + 100 VAR121 + 100 VAR22 + 100 VAR122 + 100 VAR23 + 100 VAR123 + 100 VAR24 + 100 VAR124 + 100 VAR25 + 100 VAR125 + 100 VAR26 + 100 VAR126 + 100 VAR27 + 100 VAR127 + 100 VAR28 + 100 VAR128 + 100 VAR29 + 100 VAR129 + 100 VAR30 + 100 VAR130 + 100 VAR31 + 100 VAR131 + 100 VAR32 + 100 VAR132 + 100 VAR33 + 100 VAR133 + 100 VAR34 + 100 VAR134 + 100 VAR35 + 100 VAR135 + 100 VAR36 + 100 VAR136 + 100 VAR37 + 100 VAR137 + 100 VAR38 + 100 VAR138 + 100 VAR39 + 100 VAR139 + 100 VAR40 + 100 VAR140 + 100 VAR41 + 100 VAR141 + 100 VAR42 + 100 VAR142 + 100 VAR43 + 100 VAR143 + 100 VAR44 + 100 VAR144 + 100 VAR45 + 100 VAR145 + 100 VAR46 + 100 VAR146 + 100 VAR47 + 100 VAR147 + 100 VAR48 + 100 VAR148 + 100 VAR49 + 100 VAR149 + 100 VAR50 + 100 VAR150 + 100 VAR51 + 100 VAR151 + 100 VAR52 + 100 VAR152 + 100 VAR53 + 100 VAR153 + 100 VAR54 + 100 VAR154 + 100 VAR55 + 100 VAR155 + 100 VAR56 + 100 VAR156 + 100 VAR57 + 100 VAR157 + 100 VAR58 + 100 VAR158 + 100 VAR59 + 100 VAR159 + 100 VAR60 + 100 VAR160 + 100 VAR61 + 100 VAR161 + 100 VAR62 + 100 VAR162 + 100 VAR63 + 100 VAR163 + 100 VAR64 + 100 VAR164 + 100 VAR65 + 100 VAR165 + 100 VAR66 + 100 VAR166 + 100 VAR67 + 100 VAR167 + 100 VAR68 + 100 VAR168 + 100 VAR69 + 100 VAR169 + 100 VAR70 + 100 VAR170 + 100 VAR71 + 100 VAR171 + 100 VAR72 + 100 VAR172 + 100 VAR73 + 100 VAR173 + 100 VAR74 + 100 VAR174 + 100 VAR75 + 100 VAR175 + 100 VAR76 + 100 VAR176 + 100 VAR77 + 100 VAR177 + 100 VAR78 + 100 VAR178 + 100 VAR79 + 100 VAR179 + 100 VAR80 + 100 VAR180 + 100 VAR81 + 100 VAR181 + 100 VAR82 + 100 VAR182 + 100 VAR83 + 100 VAR183 + 100 VAR84 + 100 VAR184 + 100 VAR85 + 100 VAR185 + 100 VAR86 + 100 VAR186 + 100 VAR87 + 100 VAR187 + 100 VAR88 + 100 VAR188 + 100 VAR89 + 100 VAR189 + 100 VAR90 + 100 VAR190 + 100 VAR91 + 100 VAR191 + 100 VAR92 + 100 VAR192 + 100 VAR93 + 100 VAR193 + 100 VAR94 + 100 VAR194 + 100 VAR95 + 100 VAR195 + 100 VAR96 + 100 VAR196 + 100 VAR97 + 100 VAR197 + 100 VAR98 + 100 VAR198 + 100 VAR99 + 100 VAR199 + 100 VAR100 + 100 VAR200 + 100 VAR101 + 100 VAR201
Subject To
 c1: 1 VAR1 + 1 VAR2 + 1 VAR102 = 1
 c2: 1 VAR1 + 1 VAR3 + 1 VAR103 = 1
 c3: 1 VAR1 + 1 VAR4 + 1 VAR104 = 1
 c4: 1 VAR1 + 1 VAR5 + 1 VAR105 = 1
 c5: 1 VAR1 + 1 VAR6 + 1 VAR106 = 1
 c6: 1 VAR1 + 1 VAR7 + 1 VAR107 = 1
 c7: 1 VAR1 + 1 VAR8 + 1 VAR108 = 1
 c8: 1 VAR1 + 1 VAR9 + 1 VAR109 = 1
 c9: 1 VAR1 + 1 VAR10 + 1 VAR110 = 1
 c10: 1 VAR1 + 1 VAR11 + 1 VAR111 = 1
 c11: 1 VAR1 + 1 VAR12 + 1 VAR112 = 1
 c12: 1 VAR1 + 1 VAR13 + 1 VAR113 = 1
 c13: 1 VAR1 + 1 VAR14 + 1 VAR114 = 1
 c14: 1 VAR1 + 1 VAR15 + 1 VAR115 = 1
 c15: 1 VAR1 + 1 VAR16 + 1 VAR116 = 1
 c16: 1 VAR1 + 1 VAR17 + 1 VAR117 = 1
 c17: 1 VAR1 + 1 VAR18 + 1 VAR118 = 1
 c18: 1 VAR1 + 1 VAR19 + 1 VAR119 = 1
 c19: 1 VAR1 + 1 VAR20 + 1 VAR120 = 1
 c20: 1 VAR1 + 1 VAR21 + 1 VAR121 = 1
 c21: 1 VAR1 + 1 VAR22 + 1 VAR122 = 1
 c22: 1 VAR1 + 1 VAR23 + 1 VAR123 = 1
 c23: 1 VAR1 + 1 VAR24 + 1 VAR124 = 1
 c24: 1 VAR1 + 1 VAR25 + 1 VAR125 = 1
 c25: 1 VAR1 + 1 VAR26 + 1 VAR126 = 1
 c26: 1 VAR1 + 1 VAR27 + 1 VAR127 = 1
 c27: 1 VAR1 + 1 VAR28 + 1 VAR128 = 1
 c28: 1 VAR1 + 1 VAR29 + 1 VAR129 = 1
 c29: 1 VAR1 + 1 VAR30 + 1 VAR130 = 1
 c30: 1 VAR1 + 1 VAR31 + 1 VAR131 = 1
 c31: 1 VAR1 + 1 VAR32 + 1 VAR132 = 1
 c32: 1 VAR1 + 1 VAR33 + 1 VAR133 = 1
 c33: 1 VAR1 + 1 VAR34 + 1 VAR134 = 1
 c34: 1 VAR1 + 1 VAR35 + 1 VAR135 = 1
 c35: 1 VAR1 + 1 VAR36 + 1 VAR136 = 1
 c36: 1 VAR1 + 1 VAR37 + 1 VAR137 = 1
 c37: 1 VAR1 + 1 VAR38 + 1 VAR138 = 1
 c38: 1 VAR1 + 1 VAR39 + 1 VAR139 = 1
 c39: 1 VAR1 + 1 VAR40 + 1 VAR140 = 1
 c40: 1 VAR1 + 1 VAR41 + 1 VAR141 = 1
 c41: 1 VAR1 + 1 VAR42 + 1 VAR142 = 1
 c42: 1 VAR1 + 1 VAR43 + 1 VAR143 = 1
 c43: 1 VAR1 + 1 VAR44 + 1 VAR144 = 1
 c44: 1 VAR1 + 1 VAR45 + 1 VAR145 = 1
 c45: 1 VAR1 + 1 VAR46 + 1 VAR146 = 1
 c46: 1 VAR1 + 1 VAR47 + 1 VAR147 = 1
 c47: 1 VAR1 + 1 VAR48 + 1 VAR148 = 1
 c48: 1 VAR1 + 1 VAR49 + 1 VAR149 = 1
 c49: 1 VAR1 + 1 VAR50 + 1 VAR150 = 1
 c50: 1 VAR1 + 1 VAR51 + 1 VAR151 = 1
 c51: 1 VAR1 + 1 VAR52 + 1 VAR152 = 1
 c52: 1 VAR1 + 1 VAR53 + 1 VAR153 = 1
 c53: 1 VAR1 + 1 VAR54 + 1 VAR154 = 1
 c54: 1 VAR1 + 1 VAR55 + 1 VAR155 = 1
 c55: 1 VAR1 + 1 VAR56 + 1 VAR156 = 1
 c56: 1 VAR1 + 1 VAR57 + 1 VAR157 = 1
 c57: 1 VAR1 + 1 VAR58 + 1 VAR158 = 1
 c58: 1 VAR1 + 1 VAR59 + 1 VAR159 = 1
 c59: 1 VAR1 + 1 VAR60 + 1 VAR160 = 1
 c60: 1 VAR1 + 1 VAR61 + 1 VAR161 = 1
 c61: 1 VAR1 + 1 VAR62 + 1 VAR162 = 1
 c62: 1 VAR1 + 1 VAR63 + 1 VAR163 = 1
 c63: 1 VAR1 + 1 VAR64 + 1 VAR164 = 1
 c64: 1 VAR1 + 1 VAR65 + 1 VAR165 = 1
 c65: 1 VAR1 + 1 VAR66 + 1 VAR166 = 1
 c66: 1 VAR1 + 1 VAR67 + 1 VAR167 = 1
 c67: 1 VAR1 + 1 VAR68 + 1 VAR168 = 1
 c68: 1 VAR1 + 1 VAR69 + 1 VAR169 = 1
 c69: 1 VAR1 + 1 VAR70 + 1 VAR170 = 1
 c70: 1 VAR1 + 1 VAR71 + 1 VAR171 = 1
 c71: 1 VAR1 + 1 VAR72 + 1 VAR172 = 1
 c72: 1 VAR1 + 1 VAR73 + 1 VAR173 = 1
 c73: 1 VAR1 + 1 VAR74 + 1 VAR174 = 1
 c74: 1 VAR1 + 1 VAR75 + 1 VAR175 = 1
 c75: 1 VAR1 + 1 VAR76 + 1 VAR176 = 1
 c76: 1 VAR1 + 1 VAR77 + 1 VAR177 = 1
 c77: 1 VAR1 + 1 VAR78 + 1 VAR178 = 1
 c78: 1 VAR1 + 1 VAR79 + 1 VAR179 = 1
 c79: 1 VAR1 + 1 VAR80 + 1 VAR180 = 1
 c80: 1 VAR1 + 1 VAR81 + 1 VAR181 = 1
 c81: 1 VAR1 + 1 VAR82 + 1 VAR182 = 1
 c82: 1 VAR1 + 1 VAR83 + 1 VAR183 = 1
 c83: 1 VAR1 + 1 VAR84 + 1 VAR184 = 1
 c84: 1 VAR1 + 1 VAR85 + 1 VAR185 = 1
 c85: 1 VAR1 + 1 VAR86 + 1 VAR186 = 1
 c86: 1 VAR1 + 1 VAR87 + 1 VAR187 = 1
 c87: 1 VAR1 + 1 VAR88 + 1 VAR188 = 1
 c88: 1 VAR1 + 1 VAR89 + 1 VAR189 = 1
 c89: 1 VAR1 + 1 VAR90 + 1 VAR190 = 1
 c90: 1 VAR1 + 1 VAR91 + 1 VAR191 = 1
 c91: 1 VAR1 + 1 VAR92 + 1 VAR192 = 1
 c92: 1 VAR1 + 1 VAR93 + 1 VAR193 = 1
 c93: 1 VAR1 + 1 VAR94 + 1 VAR194 = 1
 c94: 1 VAR1 + 1 VAR95 + 1 VAR195 = 1
 c95: 1 VAR1 + 1 VAR96 + 1 VAR196 = 1
 c96: 1 VAR1 + 1 VAR97 + 1 VAR197 = 1
 c97: 1 VAR1 + 1 VAR98 + 1 VAR198 = 1
 c98: 1 VAR1 + 1 VAR99 + 1 VAR199 = 1
 c99: 1 VAR1 + 1 VAR100 + 1 VAR200 = 1
 c100: 1 VAR1 + 1 VAR101 + 1 VAR201 = 1
 c101: 1 VAR1 + 1 VAR202 + 1 VAR207 = 1
 c102: 1 VAR1 + 1 VAR203 + 1 VAR208 = 1
 c103: 1 VAR1 + 1 VAR204 + 1 VAR209 = 1
 c104: 1 VAR1 + 1 VAR205 + 1 VAR210 = 1
 c105: 1 VAR1 + 1 VAR206 + 1 VAR211 = 1
Bounds
 0 <= VAR1 <= +inf
 0 <= VAR2 <= 10
 0 <= VAR3 <= 10
 0 <= VAR4 <= 10
 0 <= VAR5 <= 10
 0 <= VAR6 <= 10
 0 <= VAR7 <= 10
 0 <= VAR8 <= 10
 0 <= VAR9 <= 10
 0 <= VAR10 <= 10
 0 <= VAR11 <= 10
 0 <= VAR12 <= 10
 0 <= VAR13 <= 10
 0 <= VAR14 <= 10
 0 <= VAR15 <= 10
 0 <= VAR16 <= 10
 0 <= VAR17 <= 10
 0 <= VAR18 <= 10
 0 <= VAR19 <= 10
 0 <= VAR20 <= 10
 0 <= VAR21 <= 10
 0 <= VAR22 <= 10
 0 <= VAR23 <= 10
 0 <= VAR24 <= 10
 0 <= VAR25 <= 10
 0 <= VAR26 <= 10
 0 <= VAR27 <= 10
 0 <= VAR28 <= 10
 0 <= VAR29 <= 10
 0 <= VAR30 <= 10
 0 <= VAR31 <= 10
 0 <= VAR32 <= 10
 0 <= VAR33 <= 10
 0 <= VAR34 <= 10
 0 <= VAR35 <= 10
 0 <= VAR36 <= 10
 0 <= VAR37 <= 10
 0 <= VAR38 <= 10
 0 <= VAR39 <= 10
 0 <= VAR40 <= 10
 0 <= VAR41 <= 10
 0 <= VAR42 <= 10
 0 <= VAR43 <= 10
 0 <= VAR44 <= 10
 0 <= VAR45 <= 10
 0 <= VAR46 <= 10
 0 <= VAR47 <= 10
 0 <= VAR48 <= 10
 0 <= VAR49 <= 10
 0 <= VAR50 <= 10
 0 <= VAR51 <= 10
 0 <= VAR52 <= 10
 0 <= VAR53 <= 10
 0 <= VAR54 <= 10
 0 <= VAR55 <= 10
 0 <= VAR56 <= 10
 0 <= VAR57 <= 10
 0 <= VAR58 <= 10
 0 <= VAR59 <= 10
 0 <= VAR60 <= 10
 0 <= VAR61 <= 10
 0 <= VAR62 <= 10
 0 <= VAR63 <= 10
 0 <= VAR64 <= 10
 0 <= VAR65 <= 10
 0 <= VAR66 <= 10
 0 <= VAR67 <= 10
 0 <= VAR68 <= 10
 0 <= VAR69 <= 10
 0 <= VAR70 <= 10
 0 <= VAR71 <= 10
 0 <= VAR72 <= 10
 0 <= VAR73 <= 10
 0 <= VAR74 <= 10
 0 <= VAR75 <= 10
 0 <= VAR76 <= 10
 0 <= VAR77 <= 10
 0 <= VAR78 <= 10
 0 <= VAR79 <= 10
 0 <= VAR80 <= 10
 0 <= VAR81 <= 10
 0 <= VAR82 <= 10
 0 <= VAR83 <= 10
 0 <= VAR84 <= 10
 0 <= VAR85 <= 10
 0 <= VAR86 <= 10
 0 <= VAR87 <= 10
 0 <= VAR88 <= 10
 0 <= VAR89 <= 10
 0 <= VAR90 <= 10
 0 <= VAR91 <= 10
 0 <= VAR92 <= 10
 0 <= VAR93 <= 10
 0 <= VAR94 <= 10
 0 <= VAR95 <= 10
 0 <= VAR96 <= 10
 0 <= VAR97 <= 10
 0 <= VAR98 <= 10
 0 <= VAR99 <= 10
 0 <= VAR100 <= 10
 0 <= VAR101 <= 10
 -10 <= VAR102 <= 0
 -10 <= VAR103 <= 0
 -10 <= VAR104 <= 0
 -10 <= VAR105 <= 0
 -10 <= VAR106 <= 0
 -10 <= VAR107 <= 0
 -10 <= VAR108 <= 0
 -10 <= VAR109 <= 0
 -10 <= VAR110 <= 0
 -10 <= VAR111 <= 0
 -10 <= VAR112 <= 0
 -10 <= VAR113 <= 0
 -10 <= VAR114 <= 0
 -10 <= VAR115 <= 0
 -10 <= VAR116 <= 0
 -10 <= VAR117 <= 0
 -10 <= VAR118 <= 0
 -10 <= VAR119 <= 0
 -10 <= VAR120 <= 0
 -10 <= VAR121 <= 0
 -10 <= VAR122 <= 0
 -10 <= VAR123 <= 0
 -10 <= VAR124 <= 0
 -10 <= VAR125 <= 0
 -10 <= VAR126 <= 0
 -10 <= VAR127 <= 0
 -10 <= VAR128 <= 0
 -10 <= VAR129 <= 0
 -10 <= VAR130 <= 0
 -10 <= VAR131 <= 0
 -10 <= VAR132 <= 0
 -10 <= VAR133 <= 0
 -10 <= VAR134 <= 0
 -10 <= VAR135 <= 0
 -10 <= VAR136 <= 0
 -10 <= VAR137 <= 0
 -10 <= VAR138 <= 0
 -10 <= VAR139 <= 0
 -10 <= VAR140 <= 0
 -10 <= VAR141 <= 0
 -10 <= VAR142 <= 0
 -10 <= VAR143 <= 0
 -10 <= VAR144 <= 0
 -10 <= VAR145 <= 0
 -10 <= VAR146 <= 0
 -10 <= VAR147 <= 0
 -10 <= VAR148 <= 0
 -10 <= VAR149 <= 0
 -10 <= VAR150 <= 0
 -10 <= VAR151 <= 0
 -10 <= VAR152 <= 0
 -10 <= VAR153 <= 0
 -10 <= VAR154 <= 0
 -10 <= VAR155 <= 0
 -10 <= VAR156 <= 0
 -10 <= VAR157 <= 0
 -10 <= VAR158 <= 0
 -10 <= VAR159 <= 0
 -10 <= VAR160 <= 0
 -10 <= VAR161 <= 0
 -10 <= VAR162 <= 0
 -10 <= VAR163 <= 0
 -10 <= VAR164 <= 0
 -10 <= VAR165 <= 0
 -10 <= VAR166 <= 0
 -10 <= VAR167 <= 0
 -10 <= VAR168 <= 0
 -10 <= VAR169 <= 0
 -10 <= VAR170 <= 0
 -10 <= VAR171 <= 0
 -10 <= VAR172 <= 0
 -10 <= VAR173 <= 0
 -10 <= VAR174 <= 0
 -10 <= VAR175 <= 0
 -10 <= VAR176 <= 0
 -10 <= VAR177 <= 0
 -10 <= VAR178 <= 0
 -10 <= VAR179 <= 0
 -10 <= VAR180 <= 0
 -10 <= VAR181 <= 0
 -10 <= VAR182 <= 0
 -10 <= VAR183 <= 0
 -10 <= VAR184 <= 0
 -10 <= VAR185 <= 0
 -10 <= VAR186 <= 0
 -10 <= VAR187 <= 0
 -10 <= VAR188 <= 0
 -10 <= VAR189 <= 0
 -10 <= VAR190 <= 0
 -10 <= VAR191 <= 0
 -10 <= VAR192 <= 0
 -10 <= VAR193 <= 0
 -10 <= VAR194 <= 0
 -10 <= VAR195 <= 0
 -10 <= VAR196 <= 0
 -10 <= VAR197 <= 0
 -10 <= VAR198 <= 0
 -10 <= VAR199 <= 0
 -10 <= VAR200 <= 0
 -10 <= VAR201 <= 0
 0 <= VAR202 <= 10
 0 <= VAR203 <= 10
 0 <= VAR204 <= 10
 0 <= VAR205 <= 10
 0 <= VAR206 <= 10
 -10 <= VAR207 <= 0
 -10 <= VAR208 <= 0
 -10 <= VAR209 <= 0
 -10 <= VAR210 <= 0
 -10 <= VAR211 <= 0
General
End
